language ESSENCE' 1.0

letting n_courses be 111
letting n_periods be 27
letting prerequisite_RelationAsSet_Explicit_1 be
        [1, 1, 1, 1, 1, 1, 2, 2, 2, 2, 2, 2, 2, 2, 2, 3, 3, 3, 3, 3, 3, 4, 4, 4, 4, 4, 4, 5, 5, 5, 5, 6, 6, 6, 6, 6, 7,
         7, 7, 7, 7, 7, 7, 7, 7, 7, 8, 8, 8, 8, 8, 8, 8, 8, 8, 9, 9, 9, 9, 9, 10, 10, 10, 10, 10, 11, 11, 11, 11, 11,
         11, 11, 12, 12, 12, 12, 12, 12, 12, 12, 12, 12, 13, 13, 13, 13, 13, 13, 14, 14, 14, 14, 14, 14, 14, 14, 14, 14,
         14, 14, 15, 15, 15, 15, 15, 15, 15, 15, 15, 15, 15, 15, 16, 16, 16, 16, 16, 16, 16, 16, 16, 17, 17, 17, 17, 17,
         17, 17, 18, 18, 18, 18, 18, 18, 18, 18, 19, 19, 19, 19, 19, 19, 19, 19, 19, 19, 19, 20, 20, 20, 21, 21, 21, 22,
         22, 23, 23, 23, 23, 23, 24, 24, 25, 26, 26, 26, 26, 27, 27, 27, 28, 28, 28, 29, 29, 29, 29, 30, 30, 30, 30, 31,
         31, 31, 32, 32, 32, 32, 32, 32, 33, 33, 33, 33, 33, 34, 35, 35, 35, 35, 35, 35, 36, 37, 37, 37, 37, 37, 38, 38,
         38, 39, 39, 39, 39, 40, 41, 41, 41, 42, 43, 43, 43, 43, 44, 44, 45, 45, 45, 45, 46, 46, 46, 46, 46, 47, 47, 47,
         47, 47, 48, 48, 48, 48, 49, 49, 50, 50, 50, 51, 52, 52, 52, 53, 53, 53, 55, 55, 55, 55, 56, 56, 56, 56, 57, 59,
         59, 60, 60, 60, 61, 61, 61, 62, 62, 62, 62, 63, 63, 63, 64, 64, 64, 65, 65, 65, 66, 66, 67, 67, 68, 68, 68, 68,
         69, 70, 70, 70, 70, 70, 71, 71, 71, 71, 71;
             int(1..305)]
letting prerequisite_RelationAsSet_Explicit_2 be
        [28, 34, 35, 46, 50, 67, 30, 34, 43, 44, 53, 62, 63, 65, 68, 20, 25, 41, 45, 63, 68, 23, 26, 28, 37, 55, 57, 20,
         37, 55, 71, 21, 24, 48, 57, 59, 20, 25, 26, 33, 34, 37, 52, 61, 67, 71, 20, 21, 22, 39, 51, 60, 61, 64, 71, 20,
         30, 36, 49, 58, 20, 32, 37, 49, 69, 29, 30, 42, 43, 64, 68, 69, 33, 34, 36, 40, 41, 45, 55, 56, 62, 63, 30, 31,
         38, 47, 49, 66, 24, 29, 32, 34, 40, 41, 44, 46, 50, 56, 65, 69, 23, 24, 25, 28, 31, 35, 36, 51, 56, 58, 66, 70,
         37, 42, 44, 47, 57, 63, 64, 65, 71, 22, 27, 29, 33, 54, 64, 65, 25, 29, 31, 41, 46, 50, 53, 70, 22, 32, 34, 36,
         37, 39, 42, 44, 48, 52, 68, 89, 98, 99, 91, 106, 108, 89, 95, 80, 82, 84, 100, 101, 88, 89, 107, 72, 83, 90,
         96, 98, 102, 109, 85, 87, 92, 73, 75, 77, 87, 75, 95, 96, 99, 80, 84, 88, 82, 92, 99, 102, 103, 107, 74, 82,
         85, 94, 98, 90, 75, 85, 92, 97, 99, 101, 83, 77, 81, 83, 90, 99, 72, 103, 111, 78, 81, 83, 100, 97, 106, 108,
         111, 83, 76, 105, 107, 110, 106, 108, 74, 92, 102, 107, 79, 80, 90, 97, 108, 80, 88, 99, 100, 109, 87, 97, 104,
         106, 73, 76, 74, 88, 94, 93, 86, 93, 111, 72, 73, 79, 75, 82, 92, 105, 87, 88, 93, 98, 105, 90, 108, 105, 106,
         107, 76, 91, 111, 80, 98, 99, 102, 77, 98, 111, 75, 101, 106, 72, 82, 106, 80, 106, 104, 111, 74, 79, 97, 111,
         92, 77, 84, 88, 99, 109, 73, 91, 100, 102, 109;
             int(1..305)]
letting course_load_Function1D be
        [6, 7, 9, 4, 9, 7, 4, 6, 6, 5, 7, 7, 6, 6, 9, 5, 8, 9, 7, 5, 9, 7, 4, 4, 6, 8, 6, 7, 8, 8, 4, 5, 6, 7, 7, 8, 4,
         6, 8, 6, 8, 7, 8, 8, 4, 5, 4, 8, 4, 5, 5, 9, 8, 8, 8, 4, 8, 7, 4, 5, 5, 7, 5, 6, 8, 7, 5, 7, 8, 9, 6, 9, 4, 6,
         5, 6, 9, 6, 4, 4, 4, 6, 5, 5, 7, 4, 5, 4, 6, 6, 7, 4, 8, 7, 9, 8, 6, 8, 4, 9, 9, 5, 6, 5, 9, 5, 8, 6, 4, 5, 9;
             int(1..111)]
letting load_per_period_ub be 27
letting load_per_period_lb be 6
letting courses_per_period_ub be 8
letting courses_per_period_lb be 3
letting fin1 be 305
letting fin2 be 111
letting fin3 be 9
